p cnf 20 7
e 1 2 0
a 3 4 0
e 5 0
a 6 0
e 7 0
a 8 0
e 9 0
a 10 0
e 11 0
a 12 13 0
e 14 15 0
a 16 17 18 0
e 19 20 0
-12 4 -13 -6 0
1 -20 -8 -16 17 0
-4 -17 3 -9 -15 0
-15 -8 12 -19 -1 0
14 -13 18 -17 0
-6 -10 -19 0
4 19 -5 -13 0
